B 
 1.0000000000000000
     5.0575999999999999    0.0000000000000000    0.0000000000000000
     0.0000000000000000    5.6245000000000003    0.0000000000000000
     0.0000000000000000    0.0000000000000000    6.9884000000000004
 B  
  28
Cartesian
  0.8774935999999999  2.8735570500000001  0.0000000000000000
  4.1801063999999997  2.7509429500000002  0.0000000000000000
  1.6513064000000000  0.0613070499999995  3.4942000000000002
  3.4062935999999997  5.5631929500000004  3.4942000000000002
  0.4430457600000000  1.2430145000000001  0.0000000000000000
  4.6145542399999995  4.3814855000000001  0.0000000000000000
  2.0857542400000000  4.0552644999999998  3.4942000000000002
  2.9718457599999999  1.5692355000000002  3.4942000000000002
  1.6300644799999999  1.2896978500000000  0.0000000000000000
  3.4275355199999997  4.3348021499999998  0.0000000000000000
  0.8987355200000001  4.1019478500000002  3.4942000000000002
  4.1588644800000001  1.5225521500000001  3.4942000000000002
  0.8339982399999999  2.0726282500000002  1.3229041200000000
  4.2236017599999993  3.5518717500000001  1.3229041200000000
  1.6948017600000000  4.8848782500000008  2.1712958799999997
  3.3627982400000000  0.7396217500000001  2.1712958799999997
  4.2236017599999993  3.5518717500000001  5.6654958799999999
  0.8339982399999999  2.0726282500000002  5.6654958799999999
  3.3627982400000000  0.7396217500000001  4.8171041200000007
  1.6948017600000000  4.8848782500000008  4.8171041200000007
  1.6907556799999999  0.4347738500000000  1.3061319600000001
  3.3668443199999998  5.1897261500000003  1.3061319600000001
  0.8380443200000001  3.2470238500000002  2.1880680400000001
  4.2195556800000000  2.3774761500000001  2.1880680400000001
  3.3668443199999998  5.1897261500000003  5.6822680400000003
  1.6907556799999999  0.4347738500000000  5.6822680400000003
  4.2195556800000000  2.3774761500000001  4.8003319600000003
  0.8380443200000001  3.2470238500000002  4.8003319600000003
